1598524
23, 5, 40, 56, 32, 12, 42, 61, 24, 1, 54, 13, 47, 20, 4, 48, 16, 59, 36, 50, 28, 31, 22, 52, 33, 57, 18, 10, 14, 44, 53, 37, 62, 39, 51, 35, 68, 8, 15, 58, 9, 17, 27, 45, 65, 2, 63, 21, 3, 43, 25, 55, 11, 26, 66, 67, 7, 6, 38, 29, 49, 41, 46, 60, 19, 30, 64, 34
